
Gurobi 7.0.2 (win64, Python) logging started 06/26/18 16:32:00

Read LP format model from file model.lp
Reading time = 0.17 seconds
obj: 22251 rows, 18197 columns, 52430 nonzeros
Iteration    Objective       Primal Inf.    Dual Inf.      Time
       0      handle free variables                          0s

IIS computed: 15 constraints and 7 bounds
IIS runtime: 0.03 seconds
